(set-logic QF_LIA)
(declare-fun x0 () Int)
(declare-fun x1 () Int)
(declare-fun x2 () Int)
(declare-fun x3 () Int)
(declare-fun x4 () Int)
(declare-fun x5 () Int)
(declare-fun x6 () Int)
(declare-fun x7 () Int)
(declare-fun x8 () Int)
(declare-fun x9 () Int)
(declare-fun A0 () Bool)
(declare-fun A1 () Bool)
(declare-fun A2 () Bool)
(declare-fun A3 () Bool)
(declare-fun A4 () Bool)
(declare-fun A5 () Bool)
(declare-fun A6 () Bool)
(declare-fun A7 () Bool)
(declare-fun A8 () Bool)
(assert (let ((.def_0 (not A3))) (let ((.def_1 (* (- 1) x2))) (let ((.def_2 (* (- 1) x6))) (let ((.def_3 (+ .def_2 .def_1))) (let ((.def_4 (< .def_3 1))) (let ((.def_5 (not .def_4))) (let ((.def_6 (and .def_5 .def_0))) (let ((.def_7 (not A8))) (let ((.def_8 (and .def_7 A5))) (let ((.def_9 (or .def_8 .def_6))) (let ((.def_10 (not A4))) (let ((.def_11 (and A0 .def_10))) (let ((.def_12 (not .def_11))) (let ((.def_13 (* (- 1) x1))) (let ((.def_14 (< .def_13 (- 1)))) (let ((.def_15 (not .def_14))) (let ((.def_16 (= .def_15 A3))) (let ((.def_17 (or .def_16 .def_12))) (let ((.def_18 (not .def_17))) (let ((.def_19 (and .def_18 .def_9))) (let ((.def_20 (not .def_19))) (let ((.def_21 (* 1 x9))) (let ((.def_22 (+ .def_2 .def_21))) (let ((.def_23 (< .def_22 1))) (let ((.def_24 (or A2 .def_23))) (let ((.def_25 (not .def_24))) (let ((.def_26 (not A7))) (let ((.def_27 (or .def_26 A6))) (let ((.def_28 (and .def_27 .def_25))) (let ((.def_29 (not .def_28))) (let ((.def_30 (* 1 x1))) (let ((.def_31 (* (- 1) x0))) (let ((.def_32 (+ .def_31 .def_30))) (let ((.def_33 (< .def_32 1))) (let ((.def_34 (or .def_33 A7))) (let ((.def_35 (not .def_34))) (let ((.def_36 (* 1 x8))) (let ((.def_37 (* (- 1) x7))) (let ((.def_38 (+ .def_37 .def_36))) (let ((.def_39 (< .def_38 1))) (let ((.def_40 (not A0))) (let ((.def_41 (and .def_40 .def_39))) (let ((.def_42 (not .def_41))) (let ((.def_43 (or .def_42 .def_35))) (let ((.def_44 (or .def_43 .def_29))) (let ((.def_45 (not .def_44))) (let ((.def_46 (or .def_45 .def_20))) (let ((.def_47 (not .def_46))) (let ((.def_48 (not A6))) (let ((.def_49 (and .def_48 A3))) (let ((.def_50 (* (- 1) x4))) (let ((.def_51 (< .def_50 (- 1)))) (let ((.def_52 (not .def_51))) (let ((.def_53 (and .def_52 A5))) (let ((.def_54 (or .def_53 .def_49))) (let ((.def_55 (* 1 x6))) (let ((.def_56 (< .def_55 1))) (let ((.def_57 (not .def_56))) (let ((.def_58 (* (- 1) x3))) (let ((.def_59 (< .def_58 (- 1)))) (let ((.def_60 (not .def_59))) (let ((.def_61 (= .def_60 .def_57))) (let ((.def_62 (* 1 x7))) (let ((.def_63 (< .def_62 (- 1)))) (let ((.def_64 (not .def_63))) (let ((.def_65 (or A7 .def_64))) (let ((.def_66 (not .def_65))) (let ((.def_67 (and .def_66 .def_61))) (let ((.def_68 (or .def_67 .def_54))) (let ((.def_69 (not .def_68))) (let ((.def_70 (+ .def_2 .def_13))) (let ((.def_71 (< .def_70 1))) (let ((.def_72 (not A1))) (let ((.def_73 (and .def_72 .def_71))) (let ((.def_74 (not .def_73))) (let ((.def_75 (* 1 x5))) (let ((.def_76 (< .def_75 1))) (let ((.def_77 (or A6 .def_76))) (let ((.def_78 (not .def_77))) (let ((.def_79 (or .def_78 .def_74))) (let ((.def_80 (* (- 1) x8))) (let ((.def_81 (< .def_80 1))) (let ((.def_82 (not A5))) (let ((.def_83 (= .def_82 .def_81))) (let ((.def_84 (< .def_31 (- 1)))) (let ((.def_85 (not .def_84))) (let ((.def_86 (= .def_85 .def_59))) (let ((.def_87 (not .def_86))) (let ((.def_88 (or .def_87 .def_83))) (let ((.def_89 (not .def_88))) (let ((.def_90 (and .def_89 .def_79))) (let ((.def_91 (= .def_90 .def_69))) (let ((.def_92 (and .def_91 .def_47))) (let ((.def_93 (<= x9 1))) (let ((.def_94 (<= 0 x9))) (let ((.def_95 (<= x8 1))) (let ((.def_96 (<= 0 x8))) (let ((.def_97 (<= x7 1))) (let ((.def_98 (<= 0 x7))) (let ((.def_99 (<= x6 1))) (let ((.def_100 (<= 0 x6))) (let ((.def_101 (<= x5 1))) (let ((.def_102 (<= 0 x5))) (let ((.def_103 (<= x4 1))) (let ((.def_104 (<= 0 x4))) (let ((.def_105 (<= x3 1))) (let ((.def_106 (<= 0 x3))) (let ((.def_107 (<= x2 1))) (let ((.def_108 (<= 0 x2))) (let ((.def_109 (<= x1 1))) (let ((.def_110 (<= 0 x1))) (let ((.def_111 (<= x0 1))) (let ((.def_112 (<= 0 x0))) (let ((.def_113 (and .def_112 .def_111 .def_110 .def_109 .def_108 .def_107 .def_106 .def_105 .def_104 .def_103 .def_102 .def_101 .def_100 .def_99 .def_98 .def_97 .def_96 .def_95 .def_94 .def_93 .def_92))) .def_113)))))))))))))))))))))))))))))))))))))))))))))))))))))))))))))))))))))))))))))))))))))))))))))))))))))))))))))))))))
(check-sat)
